c t wmc
c file mc2022_track2_091.cnf
p cnf 272 1898
1 0
9 10 0
17 18 19 0
25 26 27 28 0
33 34 35 36 37 0
41 42 43 44 45 46 0
49 50 51 52 53 54 55 0
57 58 59 60 61 62 63 64 0
65 66 67 68 69 70 71 72 0
73 74 75 76 77 78 79 80 0
81 82 83 84 85 86 87 88 0
89 90 91 92 93 94 95 96 0
97 98 99 100 101 102 103 104 0
105 106 107 108 109 110 111 112 0
113 114 115 116 117 118 119 120 0
121 122 123 124 125 126 127 128 0
129 130 131 132 133 134 135 136 0
137 138 139 140 141 142 143 144 0
145 146 147 148 149 150 151 152 0
153 154 155 156 157 158 159 160 0
161 162 163 164 165 166 167 168 0
169 170 171 172 173 174 175 176 0
177 178 179 180 181 182 183 184 0
185 186 187 188 189 190 191 192 0
193 194 195 196 197 198 199 200 0
201 202 203 204 205 206 207 208 0
209 210 211 212 213 214 215 216 0
217 218 219 220 221 222 223 224 0
225 226 227 228 229 230 231 232 0
233 234 235 236 237 238 239 240 0
241 242 243 244 245 246 247 248 0
249 250 251 252 253 254 255 256 0
257 258 259 260 261 262 263 264 0
265 266 267 268 269 270 271 272 0
-1 -265 0
-2 -266 0
-3 -267 0
-4 -268 0
-5 -269 0
-6 -270 0
-7 -271 0
-8 -272 0
-33 -241 0
-34 -242 0
-35 -243 0
-36 -244 0
-37 -245 0
-38 -246 0
-39 -247 0
-40 -248 0
-73 -129 0
-74 -130 0
-75 -131 0
-76 -132 0
-77 -133 0
-78 -134 0
-79 -135 0
-80 -136 0
-49 -89 0
-50 -90 0
-51 -91 0
-52 -92 0
-53 -93 0
-54 -94 0
-55 -95 0
-56 -96 0
-41 -217 0
-42 -218 0
-43 -219 0
-44 -220 0
-45 -221 0
-46 -222 0
-47 -223 0
-48 -224 0
-81 -217 0
-82 -218 0
-83 -219 0
-84 -220 0
-85 -221 0
-86 -222 0
-87 -223 0
-88 -224 0
-1 -129 0
-2 -130 0
-3 -131 0
-4 -132 0
-5 -133 0
-6 -134 0
-7 -135 0
-8 -136 0
-129 -153 0
-130 -154 0
-131 -155 0
-132 -156 0
-133 -157 0
-134 -158 0
-135 -159 0
-136 -160 0
-89 -241 0
-90 -242 0
-91 -243 0
-92 -244 0
-93 -245 0
-94 -246 0
-95 -247 0
-96 -248 0
-9 -169 0
-10 -170 0
-11 -171 0
-12 -172 0
-13 -173 0
-14 -174 0
-15 -175 0
-16 -176 0
-137 -145 0
-138 -146 0
-139 -147 0
-140 -148 0
-141 -149 0
-142 -150 0
-143 -151 0
-144 -152 0
-1 -81 0
-2 -82 0
-3 -83 0
-4 -84 0
-5 -85 0
-6 -86 0
-7 -87 0
-8 -88 0
-137 -233 0
-138 -234 0
-139 -235 0
-140 -236 0
-141 -237 0
-142 -238 0
-143 -239 0
-144 -240 0
-97 -249 0
-98 -250 0
-99 -251 0
-100 -252 0
-101 -253 0
-102 -254 0
-103 -255 0
-104 -256 0
-25 -145 0
-26 -146 0
-27 -147 0
-28 -148 0
-29 -149 0
-30 -150 0
-31 -151 0
-32 -152 0
-145 -225 0
-146 -226 0
-147 -227 0
-148 -228 0
-149 -229 0
-150 -230 0
-151 -231 0
-152 -232 0
-201 -249 0
-202 -250 0
-203 -251 0
-204 -252 0
-205 -253 0
-206 -254 0
-207 -255 0
-208 -256 0
-33 -137 0
-34 -138 0
-35 -139 0
-36 -140 0
-37 -141 0
-38 -142 0
-39 -143 0
-40 -144 0
-153 -233 0
-154 -234 0
-155 -235 0
-156 -236 0
-157 -237 0
-158 -238 0
-159 -239 0
-160 -240 0
-81 -169 0
-82 -170 0
-83 -171 0
-84 -172 0
-85 -173 0
-86 -174 0
-87 -175 0
-88 -176 0
-73 -137 0
-74 -138 0
-75 -139 0
-76 -140 0
-77 -141 0
-78 -142 0
-79 -143 0
-80 -144 0
-193 -201 0
-194 -202 0
-195 -203 0
-196 -204 0
-197 -205 0
-198 -206 0
-199 -207 0
-200 -208 0
-49 -145 0
-50 -146 0
-51 -147 0
-52 -148 0
-53 -149 0
-54 -150 0
-55 -151 0
-56 -152 0
-225 -265 0
-226 -266 0
-227 -267 0
-228 -268 0
-229 -269 0
-230 -270 0
-231 -271 0
-232 -272 0
-81 -209 0
-82 -210 0
-83 -211 0
-84 -212 0
-85 -213 0
-86 -214 0
-87 -215 0
-88 -216 0
-1 -217 0
-2 -218 0
-3 -219 0
-4 -220 0
-5 -221 0
-6 -222 0
-7 -223 0
-8 -224 0
-129 -177 0
-130 -178 0
-131 -179 0
-132 -180 0
-133 -181 0
-134 -182 0
-135 -183 0
-136 -184 0
-121 -193 0
-122 -194 0
-123 -195 0
-124 -196 0
-125 -197 0
-126 -198 0
-127 -199 0
-128 -200 0
-49 -217 0
-50 -218 0
-51 -219 0
-52 -220 0
-53 -221 0
-54 -222 0
-55 -223 0
-56 -224 0
-169 -217 0
-170 -218 0
-171 -219 0
-172 -220 0
-173 -221 0
-174 -222 0
-175 -223 0
-176 -224 0
-89 -217 0
-90 -218 0
-91 -219 0
-92 -220 0
-93 -221 0
-94 -222 0
-95 -223 0
-96 -224 0
-9 -209 0
-10 -210 0
-11 -211 0
-12 -212 0
-13 -213 0
-14 -214 0
-15 -215 0
-16 -216 0
-137 -153 0
-138 -154 0
-139 -155 0
-140 -156 0
-141 -157 0
-142 -158 0
-143 -159 0
-144 -160 0
-217 -241 0
-218 -242 0
-219 -243 0
-220 -244 0
-221 -245 0
-222 -246 0
-223 -247 0
-224 -248 0
-33 -81 0
-34 -82 0
-35 -83 0
-36 -84 0
-37 -85 0
-38 -86 0
-39 -87 0
-40 -88 0
-153 -249 0
-154 -250 0
-155 -251 0
-156 -252 0
-157 -253 0
-158 -254 0
-159 -255 0
-160 -256 0
-145 -185 0
-146 -186 0
-147 -187 0
-148 -188 0
-149 -189 0
-150 -190 0
-151 -191 0
-152 -192 0
-113 -225 0
-114 -226 0
-115 -227 0
-116 -228 0
-117 -229 0
-118 -230 0
-119 -231 0
-120 -232 0
-41 -177 0
-42 -178 0
-43 -179 0
-44 -180 0
-45 -181 0
-46 -182 0
-47 -183 0
-48 -184 0
-81 -161 0
-82 -162 0
-83 -163 0
-84 -164 0
-85 -165 0
-86 -166 0
-87 -167 0
-88 -168 0
-73 -177 0
-74 -178 0
-75 -179 0
-76 -180 0
-77 -181 0
-78 -182 0
-79 -183 0
-80 -184 0
-217 -249 0
-218 -250 0
-219 -251 0
-220 -252 0
-221 -253 0
-222 -254 0
-223 -255 0
-224 -256 0
-1 -241 0
-2 -242 0
-3 -243 0
-4 -244 0
-5 -245 0
-6 -246 0
-7 -247 0
-8 -248 0
-1 -89 0
-2 -90 0
-3 -91 0
-4 -92 0
-5 -93 0
-6 -94 0
-7 -95 0
-8 -96 0
-177 -217 0
-178 -218 0
-179 -219 0
-180 -220 0
-181 -221 0
-182 -222 0
-183 -223 0
-184 -224 0
-9 -81 0
-10 -82 0
-11 -83 0
-12 -84 0
-13 -85 0
-14 -86 0
-15 -87 0
-16 -88 0
-57 -241 0
-58 -242 0
-59 -243 0
-60 -244 0
-61 -245 0
-62 -246 0
-63 -247 0
-64 -248 0
-17 -137 0
-18 -138 0
-19 -139 0
-20 -140 0
-21 -141 0
-22 -142 0
-23 -143 0
-24 -144 0
-145 -265 0
-146 -266 0
-147 -267 0
-148 -268 0
-149 -269 0
-150 -270 0
-151 -271 0
-152 -272 0
-57 -137 0
-58 -138 0
-59 -139 0
-60 -140 0
-61 -141 0
-62 -142 0
-63 -143 0
-64 -144 0
-145 -177 0
-146 -178 0
-147 -179 0
-148 -180 0
-149 -181 0
-150 -182 0
-151 -183 0
-152 -184 0
-65 -145 0
-66 -146 0
-67 -147 0
-68 -148 0
-69 -149 0
-70 -150 0
-71 -151 0
-72 -152 0
-1 -161 0
-2 -162 0
-3 -163 0
-4 -164 0
-5 -165 0
-6 -166 0
-7 -167 0
-8 -168 0
-233 -249 0
-234 -250 0
-235 -251 0
-236 -252 0
-237 -253 0
-238 -254 0
-239 -255 0
-240 -256 0
-9 -137 0
-10 -138 0
-11 -139 0
-12 -140 0
-13 -141 0
-14 -142 0
-15 -143 0
-16 -144 0
-1 -201 0
-2 -202 0
-3 -203 0
-4 -204 0
-5 -205 0
-6 -206 0
-7 -207 0
-8 -208 0
-129 -225 0
-130 -226 0
-131 -227 0
-132 -228 0
-133 -229 0
-134 -230 0
-135 -231 0
-136 -232 0
-65 -265 0
-66 -266 0
-67 -267 0
-68 -268 0
-69 -269 0
-70 -270 0
-71 -271 0
-72 -272 0
-17 -81 0
-18 -82 0
-19 -83 0
-20 -84 0
-21 -85 0
-22 -86 0
-23 -87 0
-24 -88 0
-1 -113 0
-2 -114 0
-3 -115 0
-4 -116 0
-5 -117 0
-6 -118 0
-7 -119 0
-8 -120 0
-57 -65 0
-58 -66 0
-59 -67 0
-60 -68 0
-61 -69 0
-62 -70 0
-63 -71 0
-64 -72 0
-17 -217 0
-18 -218 0
-19 -219 0
-20 -220 0
-21 -221 0
-22 -222 0
-23 -223 0
-24 -224 0
-57 -217 0
-58 -218 0
-59 -219 0
-60 -220 0
-61 -221 0
-62 -222 0
-63 -223 0
-64 -224 0
-25 -241 0
-26 -242 0
-27 -243 0
-28 -244 0
-29 -245 0
-30 -246 0
-31 -247 0
-32 -248 0
-145 -257 0
-146 -258 0
-147 -259 0
-148 -260 0
-149 -261 0
-150 -262 0
-151 -263 0
-152 -264 0
-1 -257 0
-2 -258 0
-3 -259 0
-4 -260 0
-5 -261 0
-6 -262 0
-7 -263 0
-8 -264 0
-113 -201 0
-114 -202 0
-115 -203 0
-116 -204 0
-117 -205 0
-118 -206 0
-119 -207 0
-120 -208 0
-33 -233 0
-34 -234 0
-35 -235 0
-36 -236 0
-37 -237 0
-38 -238 0
-39 -239 0
-40 -240 0
-73 -233 0
-74 -234 0
-75 -235 0
-76 -236 0
-77 -237 0
-78 -238 0
-79 -239 0
-80 -240 0
-209 -257 0
-210 -258 0
-211 -259 0
-212 -260 0
-213 -261 0
-214 -262 0
-215 -263 0
-216 -264 0
-41 -225 0
-42 -226 0
-43 -227 0
-44 -228 0
-45 -229 0
-46 -230 0
-47 -231 0
-48 -232 0
-1 -121 0
-2 -122 0
-3 -123 0
-4 -124 0
-5 -125 0
-6 -126 0
-7 -127 0
-8 -128 0
-201 -225 0
-202 -226 0
-203 -227 0
-204 -228 0
-205 -229 0
-206 -230 0
-207 -231 0
-208 -232 0
-121 -225 0
-122 -226 0
-123 -227 0
-124 -228 0
-125 -229 0
-126 -230 0
-127 -231 0
-128 -232 0
-41 -249 0
-42 -250 0
-43 -251 0
-44 -252 0
-45 -253 0
-46 -254 0
-47 -255 0
-48 -256 0
-89 -185 0
-90 -186 0
-91 -187 0
-92 -188 0
-93 -189 0
-94 -190 0
-95 -191 0
-96 -192 0
-129 -185 0
-130 -186 0
-131 -187 0
-132 -188 0
-133 -189 0
-134 -190 0
-135 -191 0
-136 -192 0
-121 -249 0
-122 -250 0
-123 -251 0
-124 -252 0
-125 -253 0
-126 -254 0
-127 -255 0
-128 -256 0
-97 -225 0
-98 -226 0
-99 -227 0
-100 -228 0
-101 -229 0
-102 -230 0
-103 -231 0
-104 -232 0
-137 -241 0
-138 -242 0
-139 -243 0
-140 -244 0
-141 -245 0
-142 -246 0
-143 -247 0
-144 -248 0
-105 -217 0
-106 -218 0
-107 -219 0
-108 -220 0
-109 -221 0
-110 -222 0
-111 -223 0
-112 -224 0
-25 -217 0
-26 -218 0
-27 -219 0
-28 -220 0
-29 -221 0
-30 -222 0
-31 -223 0
-32 -224 0
-145 -217 0
-146 -218 0
-147 -219 0
-148 -220 0
-149 -221 0
-150 -222 0
-151 -223 0
-152 -224 0
-113 -193 0
-114 -194 0
-115 -195 0
-116 -196 0
-117 -197 0
-118 -198 0
-119 -199 0
-120 -200 0
-185 -217 0
-186 -218 0
-187 -219 0
-188 -220 0
-189 -221 0
-190 -222 0
-191 -223 0
-192 -224 0
-17 -257 0
-18 -258 0
-19 -259 0
-20 -260 0
-21 -261 0
-22 -262 0
-23 -263 0
-24 -264 0
-73 -145 0
-74 -146 0
-75 -147 0
-76 -148 0
-77 -149 0
-78 -150 0
-79 -151 0
-80 -152 0
-49 -137 0
-50 -138 0
-51 -139 0
-52 -140 0
-53 -141 0
-54 -142 0
-55 -143 0
-56 -144 0
-177 -265 0
-178 -266 0
-179 -267 0
-180 -268 0
-181 -269 0
-182 -270 0
-183 -271 0
-184 -272 0
-225 -257 0
-226 -258 0
-227 -259 0
-228 -260 0
-229 -261 0
-230 -262 0
-231 -263 0
-232 -264 0
-81 -201 0
-82 -202 0
-83 -203 0
-84 -204 0
-85 -205 0
-86 -206 0
-87 -207 0
-88 -208 0
-1 -145 0
-2 -146 0
-3 -147 0
-4 -148 0
-5 -149 0
-6 -150 0
-7 -151 0
-8 -152 0
-121 -201 0
-122 -202 0
-123 -203 0
-124 -204 0
-125 -205 0
-126 -206 0
-127 -207 0
-128 -208 0
-49 -241 0
-50 -242 0
-51 -243 0
-52 -244 0
-53 -245 0
-54 -246 0
-55 -247 0
-56 -248 0
-241 -265 0
-242 -266 0
-243 -267 0
-244 -268 0
-245 -269 0
-246 -270 0
-247 -271 0
-248 -272 0
-89 -225 0
-90 -226 0
-91 -227 0
-92 -228 0
-93 -229 0
-94 -230 0
-95 -231 0
-96 -232 0
-209 -241 0
-210 -242 0
-211 -243 0
-212 -244 0
-213 -245 0
-214 -246 0
-215 -247 0
-216 -248 0
-73 -249 0
-74 -250 0
-75 -251 0
-76 -252 0
-77 -253 0
-78 -254 0
-79 -255 0
-80 -256 0
-25 -81 0
-26 -82 0
-27 -83 0
-28 -84 0
-29 -85 0
-30 -86 0
-31 -87 0
-32 -88 0
-17 -169 0
-18 -170 0
-19 -171 0
-20 -172 0
-21 -173 0
-22 -174 0
-23 -175 0
-24 -176 0
-105 -193 0
-106 -194 0
-107 -195 0
-108 -196 0
-109 -197 0
-110 -198 0
-111 -199 0
-112 -200 0
-153 -257 0
-154 -258 0
-155 -259 0
-156 -260 0
-157 -261 0
-158 -262 0
-159 -263 0
-160 -264 0
-145 -209 0
-146 -210 0
-147 -211 0
-148 -212 0
-149 -213 0
-150 -214 0
-151 -215 0
-152 -216 0
-9 -257 0
-10 -258 0
-11 -259 0
-12 -260 0
-13 -261 0
-14 -262 0
-15 -263 0
-16 -264 0
-65 -177 0
-66 -178 0
-67 -179 0
-68 -180 0
-69 -181 0
-70 -182 0
-71 -183 0
-72 -184 0
-33 -153 0
-34 -154 0
-35 -155 0
-36 -156 0
-37 -157 0
-38 -158 0
-39 -159 0
-40 -160 0
-153 -217 0
-154 -218 0
-155 -219 0
-156 -220 0
-157 -221 0
-158 -222 0
-159 -223 0
-160 -224 0
-217 -257 0
-218 -258 0
-219 -259 0
-220 -260 0
-221 -261 0
-222 -262 0
-223 -263 0
-224 -264 0
-73 -153 0
-74 -154 0
-75 -155 0
-76 -156 0
-77 -157 0
-78 -158 0
-79 -159 0
-80 -160 0
-49 -129 0
-50 -130 0
-51 -131 0
-52 -132 0
-53 -133 0
-54 -134 0
-55 -135 0
-56 -136 0
-177 -257 0
-178 -258 0
-179 -259 0
-180 -260 0
-181 -261 0
-182 -262 0
-183 -263 0
-184 -264 0
-33 -257 0
-34 -258 0
-35 -259 0
-36 -260 0
-37 -261 0
-38 -262 0
-39 -263 0
-40 -264 0
-89 -177 0
-90 -178 0
-91 -179 0
-92 -180 0
-93 -181 0
-94 -182 0
-95 -183 0
-96 -184 0
-1 -233 0
-2 -234 0
-3 -235 0
-4 -236 0
-5 -237 0
-6 -238 0
-7 -239 0
-8 -240 0
-49 -265 0
-50 -266 0
-51 -267 0
-52 -268 0
-53 -269 0
-54 -270 0
-55 -271 0
-56 -272 0
-169 -233 0
-170 -234 0
-171 -235 0
-172 -236 0
-173 -237 0
-174 -238 0
-175 -239 0
-176 -240 0
-241 -257 0
-242 -258 0
-243 -259 0
-244 -260 0
-245 -261 0
-246 -262 0
-247 -263 0
-248 -264 0
-137 -169 0
-138 -170 0
-139 -171 0
-140 -172 0
-141 -173 0
-142 -174 0
-143 -175 0
-144 -176 0
-177 -241 0
-178 -242 0
-179 -243 0
-180 -244 0
-181 -245 0
-182 -246 0
-183 -247 0
-184 -248 0
-89 -249 0
-90 -250 0
-91 -251 0
-92 -252 0
-93 -253 0
-94 -254 0
-95 -255 0
-96 -256 0
-217 -225 0
-218 -226 0
-219 -227 0
-220 -228 0
-221 -229 0
-222 -230 0
-223 -231 0
-224 -232 0
-113 -249 0
-114 -250 0
-115 -251 0
-116 -252 0
-117 -253 0
-118 -254 0
-119 -255 0
-120 -256 0
-65 -225 0
-66 -226 0
-67 -227 0
-68 -228 0
-69 -229 0
-70 -230 0
-71 -231 0
-72 -232 0
-57 -145 0
-58 -146 0
-59 -147 0
-60 -148 0
-61 -149 0
-62 -150 0
-63 -151 0
-64 -152 0
-193 -249 0
-194 -250 0
-195 -251 0
-196 -252 0
-197 -253 0
-198 -254 0
-199 -255 0
-200 -256 0
-25 -169 0
-26 -170 0
-27 -171 0
-28 -172 0
-29 -173 0
-30 -174 0
-31 -175 0
-32 -176 0
-145 -169 0
-146 -170 0
-147 -171 0
-148 -172 0
-149 -173 0
-150 -174 0
-151 -175 0
-152 -176 0
-65 -137 0
-66 -138 0
-67 -139 0
-68 -140 0
-69 -141 0
-70 -142 0
-71 -143 0
-72 -144 0
-49 -81 0
-50 -82 0
-51 -83 0
-52 -84 0
-53 -85 0
-54 -86 0
-55 -87 0
-56 -88 0
-41 -129 0
-42 -130 0
-43 -131 0
-44 -132 0
-45 -133 0
-46 -134 0
-47 -135 0
-48 -136 0
-33 -177 0
-34 -178 0
-35 -179 0
-36 -180 0
-37 -181 0
-38 -182 0
-39 -183 0
-40 -184 0
-25 -257 0
-26 -258 0
-27 -259 0
-28 -260 0
-29 -261 0
-30 -262 0
-31 -263 0
-32 -264 0
-169 -257 0
-170 -258 0
-171 -259 0
-172 -260 0
-173 -261 0
-174 -262 0
-175 -263 0
-176 -264 0
-1 -153 0
-2 -154 0
-3 -155 0
-4 -156 0
-5 -157 0
-6 -158 0
-7 -159 0
-8 -160 0
-49 -153 0
-50 -154 0
-51 -155 0
-52 -156 0
-53 -157 0
-54 -158 0
-55 -159 0
-56 -160 0
-233 -257 0
-234 -258 0
-235 -259 0
-236 -260 0
-237 -261 0
-238 -262 0
-239 -263 0
-240 -264 0
-9 -145 0
-10 -146 0
-11 -147 0
-12 -148 0
-13 -149 0
-14 -150 0
-15 -151 0
-16 -152 0
-1 -193 0
-2 -194 0
-3 -195 0
-4 -196 0
-5 -197 0
-6 -198 0
-7 -199 0
-8 -200 0
-129 -217 0
-130 -218 0
-131 -219 0
-132 -220 0
-133 -221 0
-134 -222 0
-135 -223 0
-136 -224 0
-65 -257 0
-66 -258 0
-67 -259 0
-68 -260 0
-69 -261 0
-70 -262 0
-71 -263 0
-72 -264 0
-169 -209 0
-170 -210 0
-171 -211 0
-172 -212 0
-173 -213 0
-174 -214 0
-175 -215 0
-176 -216 0
-97 -193 0
-98 -194 0
-99 -195 0
-100 -196 0
-101 -197 0
-102 -198 0
-103 -199 0
-104 -200 0
-81 -265 0
-82 -266 0
-83 -267 0
-84 -268 0
-85 -269 0
-86 -270 0
-87 -271 0
-88 -272 0
-9 -233 0
-10 -234 0
-11 -235 0
-12 -236 0
-13 -237 0
-14 -238 0
-15 -239 0
-16 -240 0
-1 -105 0
-2 -106 0
-3 -107 0
-4 -108 0
-5 -109 0
-6 -110 0
-7 -111 0
-8 -112 0
-57 -73 0
-58 -74 0
-59 -75 0
-60 -76 0
-61 -77 0
-62 -78 0
-63 -79 0
-64 -80 0
-137 -209 0
-138 -210 0
-139 -211 0
-140 -212 0
-141 -213 0
-142 -214 0
-143 -215 0
-144 -216 0
-17 -241 0
-18 -242 0
-19 -243 0
-20 -244 0
-21 -245 0
-22 -246 0
-23 -247 0
-24 -248 0
-57 -225 0
-58 -226 0
-59 -227 0
-60 -228 0
-61 -229 0
-62 -230 0
-63 -231 0
-64 -232 0
-185 -265 0
-186 -266 0
-187 -267 0
-188 -268 0
-189 -269 0
-190 -270 0
-191 -271 0
-192 -272 0
-145 -249 0
-146 -250 0
-147 -251 0
-148 -252 0
-149 -253 0
-150 -254 0
-151 -255 0
-152 -256 0
-1 -249 0
-2 -250 0
-3 -251 0
-4 -252 0
-5 -253 0
-6 -254 0
-7 -255 0
-8 -256 0
-153 -209 0
-154 -210 0
-155 -211 0
-156 -212 0
-157 -213 0
-158 -214 0
-159 -215 0
-160 -216 0
-73 -241 0
-74 -242 0
-75 -243 0
-76 -244 0
-77 -245 0
-78 -246 0
-79 -247 0
-80 -248 0
-193 -225 0
-194 -226 0
-195 -227 0
-196 -228 0
-197 -229 0
-198 -230 0
-199 -231 0
-200 -232 0
-41 -137 0
-42 -138 0
-43 -139 0
-44 -140 0
-45 -141 0
-46 -142 0
-47 -143 0
-48 -144 0
-161 -201 0
-162 -202 0
-163 -203 0
-164 -204 0
-165 -205 0
-166 -206 0
-167 -207 0
-168 -208 0
-153 -169 0
-154 -170 0
-155 -171 0
-156 -172 0
-157 -173 0
-158 -174 0
-159 -175 0
-160 -176 0
-81 -233 0
-82 -234 0
-83 -235 0
-84 -236 0
-85 -237 0
-86 -238 0
-87 -239 0
-88 -240 0
-57 -257 0
-58 -258 0
-59 -259 0
-60 -260 0
-61 -261 0
-62 -262 0
-63 -263 0
-64 -264 0
-233 -265 0
-234 -266 0
-235 -267 0
-236 -268 0
-237 -269 0
-238 -270 0
-239 -271 0
-240 -272 0
-9 -153 0
-10 -154 0
-11 -155 0
-12 -156 0
-13 -157 0
-14 -158 0
-15 -159 0
-16 -160 0
-129 -241 0
-130 -242 0
-131 -243 0
-132 -244 0
-133 -245 0
-134 -246 0
-135 -247 0
-136 -248 0
-97 -217 0
-98 -218 0
-99 -219 0
-100 -220 0
-101 -221 0
-102 -222 0
-103 -223 0
-104 -224 0
-81 -257 0
-82 -258 0
-83 -259 0
-84 -260 0
-85 -261 0
-86 -262 0
-87 -263 0
-88 -264 0
-137 -217 0
-138 -218 0
-139 -219 0
-140 -220 0
-141 -221 0
-142 -222 0
-143 -223 0
-144 -224 0
-105 -225 0
-106 -226 0
-107 -227 0
-108 -228 0
-109 -229 0
-110 -230 0
-111 -231 0
-112 -232 0
-145 -241 0
-146 -242 0
-147 -243 0
-148 -244 0
-149 -245 0
-150 -246 0
-151 -247 0
-152 -248 0
-185 -225 0
-186 -226 0
-187 -227 0
-188 -228 0
-189 -229 0
-190 -230 0
-191 -231 0
-192 -232 0
-161 -249 0
-162 -250 0
-163 -251 0
-164 -252 0
-165 -253 0
-166 -254 0
-167 -255 0
-168 -256 0
-161 -225 0
-162 -226 0
-163 -227 0
-164 -228 0
-165 -229 0
-166 -230 0
-167 -231 0
-168 -232 0
-225 -249 0
-226 -250 0
-227 -251 0
-228 -252 0
-229 -253 0
-230 -254 0
-231 -255 0
-232 -256 0
-81 -225 0
-82 -226 0
-83 -227 0
-84 -228 0
-85 -229 0
-86 -230 0
-87 -231 0
-88 -232 0
-1 -137 0
-2 -138 0
-3 -139 0
-4 -140 0
-5 -141 0
-6 -142 0
-7 -143 0
-8 -144 0
-49 -233 0
-50 -234 0
-51 -235 0
-52 -236 0
-53 -237 0
-54 -238 0
-55 -239 0
-56 -240 0
-41 -265 0
-42 -266 0
-43 -267 0
-44 -268 0
-45 -269 0
-46 -270 0
-47 -271 0
-48 -272 0
-209 -233 0
-210 -234 0
-211 -235 0
-212 -236 0
-213 -237 0
-214 -238 0
-215 -239 0
-216 -240 0
-73 -257 0
-74 -258 0
-75 -259 0
-76 -260 0
-77 -261 0
-78 -262 0
-79 -263 0
-80 -264 0
-65 -89 0
-66 -90 0
-67 -91 0
-68 -92 0
-69 -93 0
-70 -94 0
-71 -95 0
-72 -96 0
-137 -257 0
-138 -258 0
-139 -259 0
-140 -260 0
-141 -261 0
-142 -262 0
-143 -263 0
-144 -264 0
-73 -81 0
-74 -82 0
-75 -83 0
-76 -84 0
-77 -85 0
-78 -86 0
-79 -87 0
-80 -88 0
-57 -177 0
-58 -178 0
-59 -179 0
-60 -180 0
-61 -181 0
-62 -182 0
-63 -183 0
-64 -184 0
-25 -137 0
-26 -138 0
-27 -139 0
-28 -140 0
-29 -141 0
-30 -142 0
-31 -143 0
-32 -144 0
-153 -265 0
-154 -266 0
-155 -267 0
-156 -268 0
-157 -269 0
-158 -270 0
-159 -271 0
-160 -272 0
-33 -145 0
-34 -146 0
-35 -147 0
-36 -148 0
-37 -149 0
-38 -150 0
-39 -151 0
-40 -152 0
-81 -177 0
-82 -178 0
-83 -179 0
-84 -180 0
-85 -181 0
-86 -182 0
-87 -183 0
-88 -184 0
-217 -265 0
-218 -266 0
-219 -267 0
-220 -268 0
-221 -269 0
-222 -270 0
-223 -271 0
-224 -272 0
-177 -249 0
-178 -250 0
-179 -251 0
-180 -252 0
-181 -253 0
-182 -254 0
-183 -255 0
-184 -256 0
-1 -225 0
-2 -226 0
-3 -227 0
-4 -228 0
-5 -229 0
-6 -230 0
-7 -231 0
-8 -232 0
-49 -225 0
-50 -226 0
-51 -227 0
-52 -228 0
-53 -229 0
-54 -230 0
-55 -231 0
-56 -232 0
-169 -241 0
-170 -242 0
-171 -243 0
-172 -244 0
-173 -245 0
-174 -246 0
-175 -247 0
-176 -248 0
-241 -249 0
-242 -250 0
-243 -251 0
-244 -252 0
-245 -253 0
-246 -254 0
-247 -255 0
-248 -256 0
-73 -265 0
-74 -266 0
-75 -267 0
-76 -268 0
-77 -269 0
-78 -270 0
-79 -271 0
-80 -272 0
-137 -177 0
-138 -178 0
-139 -179 0
-140 -180 0
-141 -181 0
-142 -182 0
-143 -183 0
-144 -184 0
-177 -233 0
-178 -234 0
-179 -235 0
-180 -236 0
-181 -237 0
-182 -238 0
-183 -239 0
-184 -240 0
-217 -233 0
-218 -234 0
-219 -235 0
-220 -236 0
-221 -237 0
-222 -238 0
-223 -239 0
-224 -240 0
-137 -265 0
-138 -266 0
-139 -267 0
-140 -268 0
-141 -269 0
-142 -270 0
-143 -271 0
-144 -272 0
-17 -153 0
-18 -154 0
-19 -155 0
-20 -156 0
-21 -157 0
-22 -158 0
-23 -159 0
-24 -160 0
-73 -89 0
-74 -90 0
-75 -91 0
-76 -92 0
-77 -93 0
-78 -94 0
-79 -95 0
-80 -96 0
-65 -217 0
-66 -218 0
-67 -219 0
-68 -220 0
-69 -221 0
-70 -222 0
-71 -223 0
-72 -224 0
-57 -153 0
-58 -154 0
-59 -155 0
-60 -156 0
-61 -157 0
-62 -158 0
-63 -159 0
-64 -160 0
-65 -129 0
-66 -130 0
-67 -131 0
-68 -132 0
-69 -133 0
-70 -134 0
-71 -135 0
-72 -136 0
-49 -73 0
-50 -74 0
-51 -75 0
-52 -76 0
-53 -77 0
-54 -78 0
-55 -79 0
-56 -80 0
-49 -177 0
-50 -178 0
-51 -179 0
-52 -180 0
-53 -181 0
-54 -182 0
-55 -183 0
-56 -184 0
-1 -185 0
-2 -186 0
-3 -187 0
-4 -188 0
-5 -189 0
-6 -190 0
-7 -191 0
-8 -192 0
-129 -145 0
-130 -146 0
-131 -147 0
-132 -148 0
-133 -149 0
-134 -150 0
-135 -151 0
-136 -152 0
-49 -249 0
-50 -250 0
-51 -251 0
-52 -252 0
-53 -253 0
-54 -254 0
-55 -255 0
-56 -256 0
-65 -249 0
-66 -250 0
-67 -251 0
-68 -252 0
-69 -253 0
-70 -254 0
-71 -255 0
-72 -256 0
-9 -241 0
-10 -242 0
-11 -243 0
-12 -244 0
-13 -245 0
-14 -246 0
-15 -247 0
-16 -248 0
-1 -97 0
-2 -98 0
-3 -99 0
-4 -100 0
-5 -101 0
-6 -102 0
-7 -103 0
-8 -104 0
-57 -81 0
-58 -82 0
-59 -83 0
-60 -84 0
-61 -85 0
-62 -86 0
-63 -87 0
-64 -88 0
-137 -185 0
-138 -186 0
-139 -187 0
-140 -188 0
-141 -189 0
-142 -190 0
-143 -191 0
-144 -192 0
-177 -225 0
-178 -226 0
-179 -227 0
-180 -228 0
-181 -229 0
-182 -230 0
-183 -231 0
-184 -232 0
-129 -249 0
-130 -250 0
-131 -251 0
-132 -252 0
-133 -253 0
-134 -254 0
-135 -255 0
-136 -256 0
-17 -233 0
-18 -234 0
-19 -235 0
-20 -236 0
-21 -237 0
-22 -238 0
-23 -239 0
-24 -240 0
-57 -233 0
-58 -234 0
-59 -235 0
-60 -236 0
-61 -237 0
-62 -238 0
-63 -239 0
-64 -240 0
-17 -145 0
-18 -146 0
-19 -147 0
-20 -148 0
-21 -149 0
-22 -150 0
-23 -151 0
-24 -152 0
-41 -89 0
-42 -90 0
-43 -91 0
-44 -92 0
-45 -93 0
-46 -94 0
-47 -95 0
-48 -96 0
-33 -217 0
-34 -218 0
-35 -219 0
-36 -220 0
-37 -221 0
-38 -222 0
-39 -223 0
-40 -224 0
-25 -153 0
-26 -154 0
-27 -155 0
-28 -156 0
-29 -157 0
-30 -158 0
-31 -159 0
-32 -160 0
-73 -217 0
-74 -218 0
-75 -219 0
-76 -220 0
-77 -221 0
-78 -222 0
-79 -223 0
-80 -224 0
-193 -217 0
-194 -218 0
-195 -219 0
-196 -220 0
-197 -221 0
-198 -222 0
-199 -223 0
-200 -224 0
-49 -65 0
-50 -66 0
-51 -67 0
-52 -68 0
-53 -69 0
-54 -70 0
-55 -71 0
-56 -72 0
-41 -145 0
-42 -146 0
-43 -147 0
-44 -148 0
-45 -149 0
-46 -150 0
-47 -151 0
-48 -152 0
-153 -177 0
-154 -178 0
-155 -179 0
-156 -180 0
-157 -181 0
-158 -182 0
-159 -183 0
-160 -184 0
-1 -169 0
-2 -170 0
-3 -171 0
-4 -172 0
-5 -173 0
-6 -174 0
-7 -175 0
-8 -176 0
-1 -209 0
-2 -210 0
-3 -211 0
-4 -212 0
-5 -213 0
-6 -214 0
-7 -215 0
-8 -216 0
-129 -233 0
-130 -234 0
-131 -235 0
-132 -236 0
-133 -237 0
-134 -238 0
-135 -239 0
-136 -240 0
-81 -249 0
-82 -250 0
-83 -251 0
-84 -252 0
-85 -253 0
-86 -254 0
-87 -255 0
-88 -256 0
-137 -225 0
-138 -226 0
-139 -227 0
-140 -228 0
-141 -229 0
-142 -230 0
-143 -231 0
-144 -232 0
-105 -249 0
-106 -250 0
-107 -251 0
-108 -252 0
-109 -253 0
-110 -254 0
-111 -255 0
-112 -256 0
-185 -249 0
-186 -250 0
-187 -251 0
-188 -252 0
-189 -253 0
-190 -254 0
-191 -255 0
-192 -256 0
-25 -233 0
-26 -234 0
-27 -235 0
-28 -236 0
-29 -237 0
-30 -238 0
-31 -239 0
-32 -240 0
c p weight 1 0.99390614 0
c p weight -1 0.00609386 0
c p weight 2 0.01487003 0
c p weight -2 0.98512997 0
c p weight 3 0.01550227 0
c p weight -3 0.98449773 0
c p weight 4 0.00209597 0
c p weight -4 0.99790403 0
c p weight 5 0.0104891 0
c p weight -5 0.9895109 0
c p weight 6 0.01051546 0
c p weight -6 0.98948454 0
c p weight 7 0.01555251 0
c p weight -7 0.98444749 0
c p weight 8 0.01116501 0
c p weight -8 0.98883499 0
c p weight 9 0.9881125 0
c p weight -9 0.0118875 0
c p weight 10 0.00307857 0
c p weight -10 0.99692143 0
c p weight 11 0.00312366 0
c p weight -11 0.99687634 0
c p weight 12 0.01592373 0
c p weight -12 0.98407627 0
c p weight 13 0.00938275 0
c p weight -13 0.99061725 0
c p weight 14 0.01605072 0
c p weight -14 0.98394928 0
c p weight 15 0.00691557 0
c p weight -15 0.99308443 0
c p weight 16 0.01822039 0
c p weight -16 0.98177961 0
c p weight 17 0.98199529 0
c p weight -17 0.01800471 0
c p weight 18 0.00036115 0
c p weight -18 0.99963885 0
c p weight 19 0.01162145 0
c p weight -19 0.98837855 0
c p weight 20 0.00337065 0
c p weight -20 0.99662935 0
c p weight 21 0.01554999 0
c p weight -21 0.98445001 0
c p weight 22 0.00953972 0
c p weight -22 0.99046028 0
c p weight 23 0.01630792 0
c p weight -23 0.98369208 0
c p weight 24 0.01593175 0
c p weight -24 0.98406825 0
c p weight 25 0.98782719 0
c p weight -25 0.01217281 0
c p weight 26 0.01402213 0
c p weight -26 0.98597787 0
c p weight 27 0.00328927 0
c p weight -27 0.99671073 0
c p weight 28 0.00620389 0
c p weight -28 0.99379611 0
c p weight 29 0.0038188 0
c p weight -29 0.9961812 0
c p weight 30 0.01801761 0
c p weight -30 0.98198239 0
c p weight 31 0.00386808 0
c p weight -31 0.99613192 0
c p weight 32 0.01948522 0
c p weight -32 0.98051478 0
c p weight 33 0.01746258 0
c p weight -33 0.98253742 0
c p weight 34 0.00972397 0
c p weight -34 0.99027603 0
c p weight 35 0.00404411 0
c p weight -35 0.99595589 0
c p weight 36 0.00624002 0
c p weight -36 0.99375998 0
c p weight 37 0.98386373 0
c p weight -37 0.01613627 0
c p weight 38 0.01488206 0
c p weight -38 0.98511794 0
c p weight 39 0.00953509 0
c p weight -39 0.99046491 0
c p weight 40 0.01627107 0
c p weight -40 0.98372893 0
c p weight 41 0.01146948 0
c p weight -41 0.98853052 0
c p weight 42 0.01259358 0
c p weight -42 0.98740642 0
c p weight 43 0.01419208 0
c p weight -43 0.98580792 0
c p weight 44 0.98724471 0
c p weight -44 0.01275529 0
c p weight 45 0.01904648 0
c p weight -45 0.98095352 0
c p weight 46 0.01627137 0
c p weight -46 0.98372863 0
c p weight 47 0.01713078 0
c p weight -47 0.98286922 0
c p weight 48 0.01367563 0
c p weight -48 0.98632437 0
c p weight 49 0.00217814 0
c p weight -49 0.99782186 0
c p weight 50 0.01380642 0
c p weight -50 0.98619358 0
c p weight 51 0.00300278 0
c p weight -51 0.99699722 0
c p weight 52 0.98010442 0
c p weight -52 0.01989558 0
c p weight 53 0.01563503 0
c p weight -53 0.98436497 0
c p weight 54 0.01239316 0
c p weight -54 0.98760684 0
c p weight 55 0.00372919 0
c p weight -55 0.99627081 0
c p weight 56 0.01312792 0
c p weight -56 0.98687208 0
c p weight 57 0.00203231 0
c p weight -57 0.99796769 0
c p weight 58 0.00407935 0
c p weight -58 0.99592065 0
c p weight 59 0.00594331 0
c p weight -59 0.99405669 0
c p weight 60 0.0149333 0
c p weight -60 0.9850667 0
c p weight 61 0.99549087 0
c p weight -61 0.00450913 0
c p weight 62 0.00763052 0
c p weight -62 0.99236948 0
c p weight 63 0.01634063 0
c p weight -63 0.98365937 0
c p weight 64 0.01768642 0
c p weight -64 0.98231358 0
c p weight 65 0.99464326 0
c p weight -65 0.00535674 0
c p weight 66 0.01709983 0
c p weight -66 0.98290017 0
c p weight 67 0.00197567 0
c p weight -67 0.99802433 0
c p weight 68 0.00327584 0
c p weight -68 0.99672416 0
c p weight 69 0.01349983 0
c p weight -69 0.98650017 0
c p weight 70 0.01518568 0
c p weight -70 0.98481432 0
c p weight 71 0.01291837 0
c p weight -71 0.98708163 0
c p weight 72 0.01546615 0
c p weight -72 0.98453385 0
c p weight 73 0.99576672 0
c p weight -73 0.00423328 0
c p weight 74 0.01833729 0
c p weight -74 0.98166271 0
c p weight 75 0.0176554 0
c p weight -75 0.9823446 0
c p weight 76 0.01036144 0
c p weight -76 0.98963856 0
c p weight 77 0.00348649 0
c p weight -77 0.99651351 0
c p weight 78 0.00446098 0
c p weight -78 0.99553902 0
c p weight 79 0.01350828 0
c p weight -79 0.98649172 0
c p weight 80 0.0078611 0
c p weight -80 0.9921389 0
c p weight 81 0.00789618 0
c p weight -81 0.99210382 0
c p weight 82 0.01022784 0
c p weight -82 0.98977216 0
c p weight 83 0.01270415 0
c p weight -83 0.98729585 0
c p weight 84 0.00466879 0
c p weight -84 0.99533121 0
c p weight 85 0.00049507 0
c p weight -85 0.99950493 0
c p weight 86 0.01574392 0
c p weight -86 0.98425608 0
c p weight 87 0.98145902 0
c p weight -87 0.01854098 0
c p weight 88 0.00555157 0
c p weight -88 0.99444843 0
c p weight 89 0.00855044 0
c p weight -89 0.99144956 0
c p weight 90 0.00837482 0
c p weight -90 0.99162518 0
c p weight 91 0.01751786 0
c p weight -91 0.98248214 0
c p weight 92 0.00327403 0
c p weight -92 0.99672597 0
c p weight 93 0.01972608 0
c p weight -93 0.98027392 0
c p weight 94 0.01406741 0
c p weight -94 0.98593259 0
c p weight 95 0.98632367 0
c p weight -95 0.01367633 0
c p weight 96 0.00709962 0
c p weight -96 0.99290038 0
c p weight 97 0.01485504 0
c p weight -97 0.98514496 0
c p weight 98 0.01511517 0
c p weight -98 0.98488483 0
c p weight 99 0.01053716 0
c p weight -99 0.98946284 0
c p weight 100 0.00958399 0
c p weight -100 0.99041601 0
c p weight 101 0.01395231 0
c p weight -101 0.98604769 0
c p weight 102 0.00342367 0
c p weight -102 0.99657633 0
c p weight 103 0.98196312 0
c p weight -103 0.01803688 0
c p weight 104 0.00974346 0
c p weight -104 0.99025654 0
c p weight 105 0.01718058 0
c p weight -105 0.98281942 0
c p weight 106 0.00716271 0
c p weight -106 0.99283729 0
c p weight 107 0.00255784 0
c p weight -107 0.99744216 0
c p weight 108 0.00472235 0
c p weight -108 0.99527765 0
c p weight 109 0.01853293 0
c p weight -109 0.98146707 0
c p weight 110 0.00814875 0
c p weight -110 0.99185125 0
c p weight 111 0.9867009 0
c p weight -111 0.0132991 0
c p weight 112 0.01951818 0
c p weight -112 0.98048182 0
c p weight 113 0.00911998 0
c p weight -113 0.99088002 0
c p weight 114 0.01897382 0
c p weight -114 0.98102618 0
c p weight 115 0.00297656 0
c p weight -115 0.99702344 0
c p weight 116 0.01762847 0
c p weight -116 0.98237153 0
c p weight 117 0.00816928 0
c p weight -117 0.99183072 0
c p weight 118 0.00529802 0
c p weight -118 0.99470198 0
c p weight 119 0.9974168 0
c p weight -119 0.0025832 0
c p weight 120 0.005951 0
c p weight -120 0.994049 0
c p weight 121 0.01381961 0
c p weight -121 0.98618039 0
c p weight 122 0.01577201 0
c p weight -122 0.98422799 0
c p weight 123 0.00269764 0
c p weight -123 0.99730236 0
c p weight 124 0.00472451 0
c p weight -124 0.99527549 0
c p weight 125 0.01474302 0
c p weight -125 0.98525698 0
c p weight 126 0.00965572 0
c p weight -126 0.99034428 0
c p weight 127 0.99019906 0
c p weight -127 0.00980094 0
c p weight 128 0.01660151 0
c p weight -128 0.98339849 0
c p weight 129 0.01024632 0
c p weight -129 0.98975368 0
c p weight 130 0.01575628 0
c p weight -130 0.98424372 0
c p weight 131 0.01669043 0
c p weight -131 0.98330957 0
c p weight 132 0.00115146 0
c p weight -132 0.99884854 0
c p weight 133 0.00102102 0
c p weight -133 0.99897898 0
c p weight 134 0.98184248 0
c p weight -134 0.01815752 0
c p weight 135 0.00337153 0
c p weight -135 0.99662847 0
c p weight 136 0.00396485 0
c p weight -136 0.99603515 0
c p weight 137 0.011102 0
c p weight -137 0.988898 0
c p weight 138 0.00205618 0
c p weight -138 0.99794382 0
c p weight 139 0.01430204 0
c p weight -139 0.98569796 0
c p weight 140 0.00732857 0
c p weight -140 0.99267143 0
c p weight 141 0.00539364 0
c p weight -141 0.99460636 0
c p weight 142 0.9866815 0
c p weight -142 0.0133185 0
c p weight 143 0.00385219 0
c p weight -143 0.99614781 0
c p weight 144 0.00895199 0
c p weight -144 0.99104801 0
c p weight 145 0.00319968 0
c p weight -145 0.99680032 0
c p weight 146 0.01225329 0
c p weight -146 0.98774671 0
c p weight 147 0.00727875 0
c p weight -147 0.99272125 0
c p weight 148 0.00759287 0
c p weight -148 0.99240713 0
c p weight 149 0.01979041 0
c p weight -149 0.98020959 0
c p weight 150 0.00953236 0
c p weight -150 0.99046764 0
c p weight 151 0.99935513 0
c p weight -151 0.00064487 0
c p weight 152 0.00023632 0
c p weight -152 0.99976368 0
c p weight 153 0.00968703 0
c p weight -153 0.99031297 0
c p weight 154 0.00898969 0
c p weight -154 0.99101031 0
c p weight 155 0.01852788 0
c p weight -155 0.98147212 0
c p weight 156 0.0058234 0
c p weight -156 0.9941766 0
c p weight 157 0.01703625 0
c p weight -157 0.98296375 0
c p weight 158 0.00935866 0
c p weight -158 0.99064134 0
c p weight 159 0.98980152 0
c p weight -159 0.01019848 0
c p weight 160 0.01626294 0
c p weight -160 0.98373706 0
c p weight 161 0.00671204 0
c p weight -161 0.99328796 0
c p weight 162 0.00051265 0
c p weight -162 0.99948735 0
c p weight 163 0.01276646 0
c p weight -163 0.98723354 0
c p weight 164 0.01813103 0
c p weight -164 0.98186897 0
c p weight 165 0.00093963 0
c p weight -165 0.99906037 0
c p weight 166 0.01995362 0
c p weight -166 0.98004638 0
c p weight 167 0.00900667 0
c p weight -167 0.99099333 0
c p weight 168 0.98714731 0
c p weight -168 0.01285269 0
c p weight 169 0.01882671 0
c p weight -169 0.98117329 0
c p weight 170 0.01423262 0
c p weight -170 0.98576738 0
c p weight 171 0.00139114 0
c p weight -171 0.99860886 0
c p weight 172 0.01416291 0
c p weight -172 0.98583709 0
c p weight 173 0.99098657 0
c p weight -173 0.00901343 0
c p weight 174 0.00347031 0
c p weight -174 0.99652969 0
c p weight 175 0.0026234 0
c p weight -175 0.9973766 0
c p weight 176 0.98571836 0
c p weight -176 0.01428164 0
c p weight 177 0.00489408 0
c p weight -177 0.99510592 0
c p weight 178 0.0142409 0
c p weight -178 0.9857591 0
c p weight 179 0.01905423 0
c p weight -179 0.98094577 0
c p weight 180 0.00148899 0
c p weight -180 0.99851101 0
c p weight 181 0.01079372 0
c p weight -181 0.98920628 0
c p weight 182 0.00587875 0
c p weight -182 0.99412125 0
c p weight 183 0.01070457 0
c p weight -183 0.98929543 0
c p weight 184 0.98145057 0
c p weight -184 0.01854943 0
c p weight 185 0.01367692 0
c p weight -185 0.98632308 0
c p weight 186 0.00672762 0
c p weight -186 0.99327238 0
c p weight 187 0.0009068 0
c p weight -187 0.9990932 0
c p weight 188 0.00640828 0
c p weight -188 0.99359172 0
c p weight 189 0.01827194 0
c p weight -189 0.98172806 0
c p weight 190 0.01895088 0
c p weight -190 0.98104912 0
c p weight 191 0.00268608 0
c p weight -191 0.99731392 0
c p weight 192 0.9844169 0
c p weight -192 0.0155831 0
c p weight 193 0.00508786 0
c p weight -193 0.99491214 0
c p weight 194 0.00039738 0
c p weight -194 0.99960262 0
c p weight 195 0.00774426 0
c p weight -195 0.99225574 0
c p weight 196 0.99802276 0
c p weight -196 0.00197724 0
c p weight 197 0.0179458 0
c p weight -197 0.9820542 0
c p weight 198 0.99931675 0
c p weight -198 0.00068325 0
c p weight 199 0.00219391 0
c p weight -199 0.99780609 0
c p weight 200 0.99043423 0
c p weight -200 0.00956577 0
c p weight 201 0.01123624 0
c p weight -201 0.98876376 0
c p weight 202 0.00618409 0
c p weight -202 0.99381591 0
c p weight 203 0.99319485 0
c p weight -203 0.00680515 0
c p weight 204 0.01284947 0
c p weight -204 0.98715053 0
c p weight 205 0.01753083 0
c p weight -205 0.98246917 0
c p weight 206 0.00919923 0
c p weight -206 0.99080077 0
c p weight 207 0.00451449 0
c p weight -207 0.99548551 0
c p weight 208 0.0035034 0
c p weight -208 0.9964966 0
c p weight 209 0.00749253 0
c p weight -209 0.99250747 0
c p weight 210 0.00381744 0
c p weight -210 0.99618256 0
c p weight 211 0.99934114 0
c p weight -211 0.00065886 0
c p weight 212 0.01853726 0
c p weight -212 0.98146274 0
c p weight 213 0.00593301 0
c p weight -213 0.99406699 0
c p weight 214 0.01264756 0
c p weight -214 0.98735244 0
c p weight 215 0.00646719 0
c p weight -215 0.99353281 0
c p weight 216 0.00631971 0
c p weight -216 0.99368029 0
c p weight 217 0.00884971 0
c p weight -217 0.99115029 0
c p weight 218 0.00882308 0
c p weight -218 0.99117692 0
c p weight 219 0.98284978 0
c p weight -219 0.01715022 0
c p weight 220 0.00176079 0
c p weight -220 0.99823921 0
c p weight 221 0.00324977 0
c p weight -221 0.99675023 0
c p weight 222 0.01248338 0
c p weight -222 0.98751662 0
c p weight 223 0.01246981 0
c p weight -223 0.98753019 0
c p weight 224 0.00875985 0
c p weight -224 0.99124015 0
c p weight 225 0.00638574 0
c p weight -225 0.99361426 0
c p weight 226 0.98268796 0
c p weight -226 0.01731204 0
c p weight 227 0.01795748 0
c p weight -227 0.98204252 0
c p weight 228 0.005902 0
c p weight -228 0.994098 0
c p weight 229 0.01880095 0
c p weight -229 0.98119905 0
c p weight 230 0.00695377 0
c p weight -230 0.99304623 0
c p weight 231 0.00751835 0
c p weight -231 0.99248165 0
c p weight 232 0.00941227 0
c p weight -232 0.99058773 0
c p weight 233 0.01189625 0
c p weight -233 0.98810375 0
c p weight 234 0.9915934 0
c p weight -234 0.0084066 0
c p weight 235 0.01153085 0
c p weight -235 0.98846915 0
c p weight 236 0.01981837 0
c p weight -236 0.98018163 0
c p weight 237 0.00876259 0
c p weight -237 0.99123741 0
c p weight 238 0.00410691 0
c p weight -238 0.99589309 0
c p weight 239 0.00955665 0
c p weight -239 0.99044335 0
c p weight 240 0.00653998 0
c p weight -240 0.99346002 0
c p weight 241 0.01399922 0
c p weight -241 0.98600078 0
c p weight 242 0.99830391 0
c p weight -242 0.00169609 0
c p weight 243 0.01581659 0
c p weight -243 0.98418341 0
c p weight 244 0.00227277 0
c p weight -244 0.99772723 0
c p weight 245 0.00521286 0
c p weight -245 0.99478714 0
c p weight 246 0.00298567 0
c p weight -246 0.99701433 0
c p weight 247 0.00217152 0
c p weight -247 0.99782848 0
c p weight 248 0.01157731 0
c p weight -248 0.98842269 0
c p weight 249 0.00111902 0
c p weight -249 0.99888098 0
c p weight 250 0.01371923 0
c p weight -250 0.98628077 0
c p weight 251 0.00827288 0
c p weight -251 0.99172712 0
c p weight 252 0.01583642 0
c p weight -252 0.98416358 0
c p weight 253 0.99000075 0
c p weight -253 0.00999925 0
c p weight 254 0.00799341 0
c p weight -254 0.99200659 0
c p weight 255 0.01010645 0
c p weight -255 0.98989355 0
c p weight 256 0.01136703 0
c p weight -256 0.98863297 0
c p weight 257 0.01976997 0
c p weight -257 0.98023003 0
c p weight 258 0.01425549 0
c p weight -258 0.98574451 0
c p weight 259 0.00211522 0
c p weight -259 0.99788478 0
c p weight 260 0.98169764 0
c p weight -260 0.01830236 0
c p weight 261 0.01538939 0
c p weight -261 0.98461061 0
c p weight 262 0.00022292 0
c p weight -262 0.99977708 0
c p weight 263 0.00045902 0
c p weight -263 0.99954098 0
c p weight 264 0.00785728 0
c p weight -264 0.99214272 0
c p weight 265 0.00335395 0
c p weight -265 0.99664605 0
c p weight 266 0.01818911 0
c p weight -266 0.98181089 0
c p weight 267 0.01448646 0
c p weight -267 0.98551354 0
c p weight 268 0.01808667 0
c p weight -268 0.98191333 0
c p weight 269 0.99987248 0
c p weight -269 0.00012752 0
c p weight 270 0.0186608 0
c p weight -270 0.9813392 0
c p weight 271 0.01463709 0
c p weight -271 0.98536291 0
c p weight 272 0.01604653 0
c p weight -272 0.98395347 0
